127 133096
1 7 13 115 120 114 105 106 15 108 6 9 11 3 10 100 64 58 91 61 62 90 116 60 59 104 86 85 88 87 110 71 70 68 74 73 67 8 72 18 77 17 21 19 23 24 4 22 20 12 14 41 40 43 34 39 42 38 26 30 27 31 80 79 78 76 75 69 109 96 119 63 102 101 83 82 126 81 84 117 32 29 25 33 122 28 123 97 98 127 107 111 112 65 99 89 92 125 113 66 55 52 124 47 118 48 53 49 46 94 93 95 103 45 44 54 57 121 56 5 50 51 2 35 37 36 16 
